NAME : random_6
COMMENT : 33 random nodes
TYPE : TSP
DIMENSION : 33
EDGE_WEIGHT_TYPE : EUC_2D
NODE_COORD_SECTION
1 721 2040
2 2592 3582
3 4543 3277
4 3392 -2508
5 298 1957
6 2507 644
7 688 3878
8 1768 460
9 3757 1399
10 -1549 -2294
11 2709 366
12 400 -1085
13 1026 -1578
14 -897 -433
15 -1207 1451
16 -2439 -1269
17 1380 583
18 3445 -397
19 2008 3533
20 2777 -59
21 -2576 -176
22 2750 3524
23 1161 2415
24 1131 -110
25 -2623 878
26 -444 -1058
27 3880 -2326
28 813 2859
29 634 4604
30 178 182
31 3750 -879
32 1211 -883
33 -1506 -95
EOF